c "random instance"
p edges 150 3373
e 1 3
e 1 5
e 1 8
e 1 9
e 1 10
e 1 11
e 1 12
e 1 13
e 1 15
e 1 17
e 1 21
e 1 22
e 1 26
e 1 27
e 1 28
e 1 29
e 1 30
e 1 32
e 1 34
e 1 39
e 1 40
e 1 42
e 1 45
e 1 53
e 1 55
e 1 57
e 1 60
e 1 63
e 1 65
e 1 70
e 1 71
e 1 72
e 1 73
e 1 75
e 1 76
e 1 77
e 1 79
e 1 82
e 1 83
e 1 86
e 1 87
e 1 89
e 1 90
e 1 100
e 1 101
e 1 103
e 1 104
e 1 106
e 1 109
e 1 112
e 1 114
e 1 117
e 1 119
e 1 126
e 1 131
e 1 133
e 1 134
e 1 141
e 1 143
e 1 144
e 1 145
e 1 146
e 1 150
e 2 3
e 2 8
e 2 16
e 2 17
e 2 19
e 2 24
e 2 27
e 2 30
e 2 31
e 2 34
e 2 39
e 2 45
e 2 47
e 2 52
e 2 61
e 2 66
e 2 68
e 2 73
e 2 77
e 2 78
e 2 85
e 2 90
e 2 102
e 2 105
e 2 109
e 2 111
e 2 112
e 2 116
e 2 119
e 2 125
e 2 129
e 2 132
e 2 136
e 2 137
e 2 144
e 2 146
e 2 149
e 2 150
e 3 9
e 3 12
e 3 19
e 3 20
e 3 26
e 3 30
e 3 34
e 3 36
e 3 47
e 3 50
e 3 51
e 3 53
e 3 56
e 3 61
e 3 67
e 3 69
e 3 70
e 3 79
e 3 80
e 3 83
e 3 89
e 3 91
e 3 95
e 3 98
e 3 101
e 3 102
e 3 106
e 3 107
e 3 119
e 3 122
e 3 124
e 3 125
e 3 126
e 3 127
e 3 129
e 3 130
e 3 135
e 3 136
e 3 139
e 3 141
e 3 142
e 3 144
e 3 145
e 3 148
e 4 6
e 4 10
e 4 11
e 4 14
e 4 15
e 4 17
e 4 18
e 4 24
e 4 25
e 4 28
e 4 33
e 4 34
e 4 36
e 4 37
e 4 39
e 4 40
e 4 42
e 4 57
e 4 58
e 4 61
e 4 64
e 4 65
e 4 68
e 4 69
e 4 72
e 4 75
e 4 79
e 4 80
e 4 81
e 4 82
e 4 85
e 4 87
e 4 92
e 4 95
e 4 102
e 4 108
e 4 113
e 4 119
e 4 123
e 4 124
e 4 126
e 4 127
e 4 129
e 4 130
e 4 131
e 4 133
e 4 134
e 4 135
e 4 136
e 4 141
e 4 145
e 4 147
e 4 148
e 5 7
e 5 8
e 5 14
e 5 19
e 5 22
e 5 23
e 5 25
e 5 26
e 5 35
e 5 36
e 5 39
e 5 41
e 5 43
e 5 45
e 5 46
e 5 47
e 5 48
e 5 55
e 5 56
e 5 70
e 5 72
e 5 73
e 5 80
e 5 81
e 5 83
e 5 85
e 5 93
e 5 95
e 5 96
e 5 97
e 5 99
e 5 103
e 5 106
e 5 109
e 5 110
e 5 118
e 5 123
e 5 124
e 5 126
e 5 128
e 5 134
e 5 138
e 5 139
e 5 142
e 5 145
e 5 148
e 6 12
e 6 14
e 6 15
e 6 18
e 6 21
e 6 24
e 6 30
e 6 33
e 6 38
e 6 39
e 6 40
e 6 46
e 6 49
e 6 54
e 6 55
e 6 56
e 6 58
e 6 61
e 6 63
e 6 68
e 6 69
e 6 72
e 6 82
e 6 85
e 6 88
e 6 97
e 6 100
e 6 103
e 6 112
e 6 113
e 6 114
e 6 118
e 6 119
e 6 123
e 6 128
e 6 129
e 6 133
e 6 134
e 6 136
e 6 137
e 6 138
e 6 139
e 6 141
e 6 143
e 6 144
e 7 11
e 7 13
e 7 17
e 7 20
e 7 26
e 7 30
e 7 36
e 7 43
e 7 45
e 7 48
e 7 55
e 7 59
e 7 60
e 7 61
e 7 62
e 7 63
e 7 64
e 7 65
e 7 66
e 7 71
e 7 77
e 7 80
e 7 81
e 7 82
e 7 85
e 7 89
e 7 96
e 7 101
e 7 108
e 7 109
e 7 111
e 7 112
e 7 125
e 7 126
e 7 127
e 7 128
e 7 131
e 7 135
e 7 136
e 7 137
e 7 140
e 7 145
e 7 147
e 7 148
e 7 150
e 8 13
e 8 14
e 8 16
e 8 17
e 8 18
e 8 20
e 8 24
e 8 33
e 8 38
e 8 46
e 8 50
e 8 53
e 8 55
e 8 57
e 8 61
e 8 69
e 8 70
e 8 74
e 8 75
e 8 76
e 8 77
e 8 79
e 8 84
e 8 86
e 8 87
e 8 94
e 8 97
e 8 100
e 8 101
e 8 102
e 8 106
e 8 107
e 8 108
e 8 113
e 8 126
e 8 127
e 8 130
e 8 138
e 8 139
e 8 140
e 8 141
e 8 142
e 8 143
e 8 145
e 9 17
e 9 22
e 9 24
e 9 27
e 9 28
e 9 30
e 9 33
e 9 35
e 9 38
e 9 40
e 9 42
e 9 57
e 9 58
e 9 62
e 9 70
e 9 75
e 9 77
e 9 80
e 9 82
e 9 84
e 9 91
e 9 92
e 9 96
e 9 98
e 9 100
e 9 102
e 9 104
e 9 105
e 9 108
e 9 112
e 9 113
e 9 115
e 9 119
e 9 125
e 9 133
e 9 136
e 9 139
e 9 147
e 10 15
e 10 17
e 10 19
e 10 21
e 10 22
e 10 23
e 10 26
e 10 32
e 10 37
e 10 38
e 10 41
e 10 43
e 10 46
e 10 49
e 10 54
e 10 55
e 10 56
e 10 60
e 10 62
e 10 63
e 10 69
e 10 74
e 10 83
e 10 89
e 10 92
e 10 94
e 10 96
e 10 101
e 10 103
e 10 104
e 10 107
e 10 108
e 10 111
e 10 113
e 10 114
e 10 115
e 10 118
e 10 119
e 10 125
e 10 126
e 10 136
e 10 140
e 11 12
e 11 14
e 11 21
e 11 24
e 11 25
e 11 28
e 11 29
e 11 31
e 11 35
e 11 36
e 11 38
e 11 42
e 11 44
e 11 49
e 11 51
e 11 53
e 11 55
e 11 56
e 11 59
e 11 60
e 11 66
e 11 69
e 11 72
e 11 78
e 11 86
e 11 89
e 11 91
e 11 93
e 11 98
e 11 99
e 11 106
e 11 110
e 11 112
e 11 119
e 11 123
e 11 124
e 11 131
e 11 132
e 11 138
e 11 139
e 11 146
e 12 14
e 12 21
e 12 22
e 12 23
e 12 25
e 12 28
e 12 43
e 12 47
e 12 48
e 12 57
e 12 61
e 12 65
e 12 68
e 12 71
e 12 72
e 12 74
e 12 75
e 12 79
e 12 82
e 12 84
e 12 85
e 12 86
e 12 87
e 12 89
e 12 91
e 12 92
e 12 94
e 12 98
e 12 100
e 12 101
e 12 102
e 12 103
e 12 106
e 12 107
e 12 108
e 12 111
e 12 114
e 12 118
e 12 127
e 12 129
e 12 134
e 12 135
e 12 140
e 12 142
e 12 143
e 12 146
e 12 149
e 13 16
e 13 23
e 13 25
e 13 26
e 13 27
e 13 30
e 13 31
e 13 32
e 13 36
e 13 44
e 13 51
e 13 55
e 13 56
e 13 57
e 13 58
e 13 60
e 13 63
e 13 64
e 13 65
e 13 67
e 13 69
e 13 77
e 13 78
e 13 86
e 13 89
e 13 92
e 13 93
e 13 101
e 13 102
e 13 113
e 13 115
e 13 129
e 13 130
e 13 132
e 13 133
e 13 142
e 14 20
e 14 21
e 14 25
e 14 30
e 14 31
e 14 32
e 14 33
e 14 34
e 14 53
e 14 54
e 14 56
e 14 58
e 14 60
e 14 68
e 14 70
e 14 71
e 14 73
e 14 74
e 14 76
e 14 77
e 14 80
e 14 81
e 14 84
e 14 86
e 14 87
e 14 91
e 14 97
e 14 105
e 14 107
e 14 115
e 14 117
e 14 119
e 14 124
e 14 130
e 14 132
e 14 135
e 14 138
e 14 146
e 15 18
e 15 19
e 15 25
e 15 26
e 15 28
e 15 29
e 15 31
e 15 35
e 15 36
e 15 39
e 15 43
e 15 45
e 15 48
e 15 51
e 15 54
e 15 58
e 15 60
e 15 74
e 15 76
e 15 77
e 15 78
e 15 80
e 15 82
e 15 86
e 15 88
e 15 90
e 15 99
e 15 101
e 15 102
e 15 108
e 15 115
e 15 116
e 15 118
e 15 119
e 15 120
e 15 123
e 15 125
e 15 129
e 15 134
e 15 136
e 15 137
e 15 146
e 15 149
e 16 18
e 16 22
e 16 26
e 16 34
e 16 41
e 16 43
e 16 47
e 16 48
e 16 49
e 16 53
e 16 54
e 16 58
e 16 59
e 16 62
e 16 72
e 16 73
e 16 75
e 16 76
e 16 86
e 16 87
e 16 90
e 16 98
e 16 101
e 16 108
e 16 112
e 16 114
e 16 116
e 16 117
e 16 124
e 16 126
e 16 127
e 16 136
e 16 137
e 16 140
e 16 142
e 16 144
e 16 145
e 16 146
e 16 148
e 16 150
e 17 20
e 17 21
e 17 24
e 17 26
e 17 31
e 17 32
e 17 34
e 17 36
e 17 38
e 17 41
e 17 47
e 17 57
e 17 59
e 17 64
e 17 66
e 17 70
e 17 79
e 17 81
e 17 84
e 17 85
e 17 87
e 17 88
e 17 89
e 17 90
e 17 91
e 17 92
e 17 97
e 17 98
e 17 100
e 17 105
e 17 108
e 17 110
e 17 111
e 17 115
e 17 116
e 17 118
e 17 125
e 17 128
e 17 129
e 17 136
e 17 139
e 17 143
e 17 145
e 17 146
e 18 25
e 18 27
e 18 35
e 18 39
e 18 43
e 18 45
e 18 46
e 18 48
e 18 51
e 18 56
e 18 57
e 18 59
e 18 60
e 18 61
e 18 62
e 18 63
e 18 65
e 18 68
e 18 69
e 18 74
e 18 78
e 18 79
e 18 80
e 18 81
e 18 88
e 18 89
e 18 92
e 18 93
e 18 94
e 18 99
e 18 103
e 18 104
e 18 107
e 18 108
e 18 110
e 18 112
e 18 113
e 18 114
e 18 117
e 18 118
e 18 127
e 18 129
e 18 130
e 18 131
e 18 134
e 18 137
e 18 141
e 18 143
e 18 147
e 18 148
e 18 150
e 19 23
e 19 24
e 19 25
e 19 27
e 19 33
e 19 34
e 19 39
e 19 40
e 19 47
e 19 59
e 19 63
e 19 64
e 19 68
e 19 73
e 19 74
e 19 75
e 19 77
e 19 78
e 19 79
e 19 86
e 19 87
e 19 91
e 19 95
e 19 96
e 19 97
e 19 102
e 19 104
e 19 105
e 19 109
e 19 114
e 19 115
e 19 118
e 19 124
e 19 126
e 19 141
e 19 145
e 19 149
e 20 32
e 20 37
e 20 38
e 20 45
e 20 47
e 20 48
e 20 51
e 20 52
e 20 55
e 20 62
e 20 63
e 20 65
e 20 74
e 20 76
e 20 79
e 20 81
e 20 84
e 20 85
e 20 87
e 20 90
e 20 91
e 20 97
e 20 104
e 20 110
e 20 111
e 20 113
e 20 116
e 20 118
e 20 124
e 20 125
e 20 132
e 20 134
e 20 135
e 20 139
e 20 142
e 20 147
e 20 148
e 20 149
e 20 150
e 21 26
e 21 30
e 21 32
e 21 36
e 21 41
e 21 45
e 21 47
e 21 48
e 21 49
e 21 52
e 21 53
e 21 55
e 21 65
e 21 66
e 21 68
e 21 69
e 21 73
e 21 74
e 21 76
e 21 77
e 21 80
e 21 83
e 21 87
e 21 89
e 21 94
e 21 100
e 21 104
e 21 111
e 21 112
e 21 115
e 21 116
e 21 120
e 21 123
e 21 124
e 21 126
e 21 128
e 21 131
e 21 134
e 21 149
e 22 26
e 22 34
e 22 40
e 22 42
e 22 44
e 22 45
e 22 47
e 22 50
e 22 53
e 22 56
e 22 58
e 22 63
e 22 64
e 22 67
e 22 69
e 22 70
e 22 74
e 22 77
e 22 83
e 22 86
e 22 89
e 22 91
e 22 96
e 22 99
e 22 102
e 22 103
e 22 108
e 22 110
e 22 112
e 22 113
e 22 114
e 22 123
e 22 124
e 22 126
e 22 127
e 22 133
e 22 135
e 22 137
e 22 142
e 22 145
e 23 25
e 23 27
e 23 33
e 23 37
e 23 38
e 23 43
e 23 48
e 23 49
e 23 51
e 23 52
e 23 57
e 23 63
e 23 64
e 23 67
e 23 68
e 23 71
e 23 73
e 23 75
e 23 84
e 23 93
e 23 95
e 23 98
e 23 102
e 23 106
e 23 107
e 23 109
e 23 121
e 23 125
e 23 132
e 23 135
e 23 136
e 23 140
e 23 149
e 24 28
e 24 30
e 24 31
e 24 37
e 24 43
e 24 50
e 24 52
e 24 54
e 24 56
e 24 60
e 24 61
e 24 68
e 24 75
e 24 76
e 24 83
e 24 86
e 24 89
e 24 90
e 24 91
e 24 92
e 24 96
e 24 97
e 24 99
e 24 100
e 24 101
e 24 105
e 24 107
e 24 108
e 24 109
e 24 110
e 24 111
e 24 112
e 24 115
e 24 117
e 24 118
e 24 120
e 24 126
e 24 128
e 24 130
e 24 138
e 24 141
e 24 145
e 24 148
e 25 32
e 25 33
e 25 37
e 25 40
e 25 61
e 25 62
e 25 73
e 25 84
e 25 86
e 25 101
e 25 106
e 25 109
e 25 110
e 25 114
e 25 117
e 25 119
e 25 129
e 25 131
e 25 133
e 25 134
e 25 136
e 25 138
e 25 139
e 25 140
e 25 142
e 25 144
e 25 145
e 25 149
e 25 150
e 26 32
e 26 34
e 26 36
e 26 38
e 26 40
e 26 43
e 26 53
e 26 54
e 26 64
e 26 69
e 26 73
e 26 75
e 26 77
e 26 79
e 26 80
e 26 82
e 26 85
e 26 87
e 26 89
e 26 93
e 26 95
e 26 96
e 26 97
e 26 98
e 26 104
e 26 106
e 26 107
e 26 109
e 26 111
e 26 114
e 26 115
e 26 121
e 26 125
e 26 126
e 26 127
e 26 137
e 26 141
e 26 143
e 26 145
e 26 146
e 26 147
e 26 150
e 27 29
e 27 30
e 27 32
e 27 37
e 27 38
e 27 39
e 27 45
e 27 50
e 27 52
e 27 55
e 27 57
e 27 63
e 27 65
e 27 71
e 27 72
e 27 73
e 27 82
e 27 88
e 27 89
e 27 95
e 27 96
e 27 98
e 27 104
e 27 107
e 27 112
e 27 113
e 27 120
e 27 125
e 27 141
e 27 143
e 27 144
e 27 148
e 27 149
e 28 29
e 28 32
e 28 40
e 28 41
e 28 43
e 28 46
e 28 54
e 28 55
e 28 59
e 28 64
e 28 66
e 28 69
e 28 70
e 28 73
e 28 78
e 28 81
e 28 83
e 28 84
e 28 85
e 28 88
e 28 91
e 28 95
e 28 98
e 28 100
e 28 101
e 28 103
e 28 106
e 28 107
e 28 111
e 28 116
e 28 117
e 28 120
e 28 121
e 28 123
e 28 130
e 28 131
e 28 145
e 28 149
e 28 150
e 29 32
e 29 36
e 29 38
e 29 39
e 29 43
e 29 46
e 29 47
e 29 49
e 29 53
e 29 60
e 29 62
e 29 64
e 29 66
e 29 71
e 29 73
e 29 79
e 29 82
e 29 85
e 29 86
e 29 87
e 29 93
e 29 95
e 29 97
e 29 99
e 29 105
e 29 106
e 29 109
e 29 111
e 29 114
e 29 118
e 29 125
e 29 127
e 29 129
e 29 133
e 29 135
e 29 136
e 29 138
e 29 143
e 29 149
e 29 150
e 30 32
e 30 35
e 30 45
e 30 46
e 30 48
e 30 49
e 30 52
e 30 55
e 30 58
e 30 60
e 30 69
e 30 70
e 30 71
e 30 72
e 30 74
e 30 75
e 30 76
e 30 77
e 30 80
e 30 89
e 30 94
e 30 95
e 30 97
e 30 103
e 30 106
e 30 111
e 30 114
e 30 117
e 30 118
e 30 119
e 30 121
e 30 123
e 30 125
e 30 126
e 30 128
e 30 142
e 30 143
e 30 150
e 31 36
e 31 37
e 31 41
e 31 45
e 31 46
e 31 47
e 31 51
e 31 53
e 31 56
e 31 59
e 31 61
e 31 66
e 31 70
e 31 72
e 31 73
e 31 74
e 31 76
e 31 79
e 31 80
e 31 89
e 31 90
e 31 93
e 31 98
e 31 106
e 31 107
e 31 110
e 31 114
e 31 136
e 31 138
e 31 141
e 31 142
e 31 145
e 31 150
e 32 35
e 32 36
e 32 40
e 32 51
e 32 52
e 32 56
e 32 57
e 32 59
e 32 60
e 32 61
e 32 62
e 32 64
e 32 68
e 32 75
e 32 83
e 32 84
e 32 88
e 32 91
e 32 95
e 32 96
e 32 98
e 32 102
e 32 112
e 32 114
e 32 125
e 32 130
e 32 134
e 32 135
e 32 138
e 32 140
e 32 143
e 32 145
e 32 149
e 33 37
e 33 41
e 33 42
e 33 43
e 33 45
e 33 48
e 33 55
e 33 58
e 33 59
e 33 65
e 33 67
e 33 68
e 33 72
e 33 74
e 33 77
e 33 81
e 33 85
e 33 89
e 33 95
e 33 98
e 33 102
e 33 104
e 33 109
e 33 112
e 33 123
e 33 124
e 33 127
e 33 131
e 33 132
e 33 136
e 33 142
e 33 143
e 33 145
e 34 37
e 34 43
e 34 48
e 34 49
e 34 51
e 34 59
e 34 65
e 34 66
e 34 67
e 34 68
e 34 70
e 34 73
e 34 79
e 34 80
e 34 86
e 34 96
e 34 99
e 34 100
e 34 102
e 34 106
e 34 111
e 34 112
e 34 114
e 34 119
e 34 120
e 34 124
e 34 125
e 34 126
e 34 128
e 34 129
e 34 131
e 34 132
e 34 134
e 34 135
e 34 146
e 34 147
e 34 148
e 34 150
e 35 45
e 35 46
e 35 47
e 35 51
e 35 52
e 35 54
e 35 63
e 35 65
e 35 66
e 35 69
e 35 73
e 35 78
e 35 81
e 35 88
e 35 91
e 35 93
e 35 94
e 35 102
e 35 106
e 35 107
e 35 109
e 35 119
e 35 122
e 35 125
e 35 126
e 35 131
e 35 134
e 35 135
e 35 138
e 35 139
e 35 146
e 35 147
e 36 39
e 36 43
e 36 45
e 36 46
e 36 47
e 36 50
e 36 55
e 36 60
e 36 63
e 36 67
e 36 72
e 36 81
e 36 85
e 36 86
e 36 95
e 36 96
e 36 98
e 36 99
e 36 102
e 36 107
e 36 108
e 36 109
e 36 112
e 36 115
e 36 119
e 36 120
e 36 126
e 36 129
e 36 134
e 36 138
e 36 143
e 36 145
e 36 147
e 36 149
e 36 150
e 37 43
e 37 44
e 37 49
e 37 51
e 37 60
e 37 61
e 37 67
e 37 69
e 37 70
e 37 72
e 37 74
e 37 77
e 37 78
e 37 79
e 37 82
e 37 85
e 37 87
e 37 88
e 37 91
e 37 94
e 37 104
e 37 106
e 37 107
e 37 108
e 37 109
e 37 113
e 37 116
e 37 123
e 37 125
e 37 126
e 37 127
e 37 130
e 37 133
e 37 137
e 37 146
e 37 149
e 38 39
e 38 40
e 38 43
e 38 49
e 38 53
e 38 54
e 38 58
e 38 60
e 38 62
e 38 64
e 38 68
e 38 74
e 38 75
e 38 81
e 38 82
e 38 88
e 38 89
e 38 90
e 38 93
e 38 94
e 38 95
e 38 96
e 38 101
e 38 103
e 38 106
e 38 108
e 38 110
e 38 111
e 38 113
e 38 119
e 38 131
e 38 132
e 38 134
e 38 135
e 38 136
e 38 138
e 38 142
e 38 143
e 38 145
e 38 146
e 38 147
e 38 150
e 39 52
e 39 60
e 39 66
e 39 68
e 39 72
e 39 76
e 39 78
e 39 79
e 39 80
e 39 81
e 39 86
e 39 89
e 39 97
e 39 101
e 39 103
e 39 109
e 39 111
e 39 116
e 39 119
e 39 122
e 39 134
e 39 135
e 39 136
e 39 140
e 39 142
e 39 147
e 39 150
e 40 42
e 40 49
e 40 57
e 40 58
e 40 59
e 40 62
e 40 63
e 40 72
e 40 73
e 40 75
e 40 77
e 40 78
e 40 79
e 40 80
e 40 82
e 40 99
e 40 105
e 40 113
e 40 121
e 40 123
e 40 125
e 40 128
e 40 132
e 40 138
e 40 140
e 40 144
e 40 146
e 40 148
e 40 149
e 41 44
e 41 50
e 41 56
e 41 59
e 41 62
e 41 63
e 41 70
e 41 76
e 41 78
e 41 79
e 41 83
e 41 85
e 41 86
e 41 89
e 41 104
e 41 105
e 41 107
e 41 108
e 41 109
e 41 111
e 41 112
e 41 115
e 41 120
e 41 121
e 41 123
e 41 124
e 41 126
e 41 129
e 41 131
e 41 136
e 41 142
e 42 43
e 42 44
e 42 45
e 42 52
e 42 62
e 42 72
e 42 77
e 42 80
e 42 84
e 42 85
e 42 87
e 42 92
e 42 94
e 42 95
e 42 98
e 42 99
e 42 100
e 42 104
e 42 110
e 42 112
e 42 116
e 42 124
e 42 127
e 42 130
e 42 132
e 42 134
e 42 135
e 42 136
e 42 138
e 42 142
e 42 143
e 43 47
e 43 48
e 43 52
e 43 56
e 43 59
e 43 62
e 43 64
e 43 66
e 43 78
e 43 79
e 43 82
e 43 85
e 43 87
e 43 89
e 43 94
e 43 98
e 43 100
e 43 110
e 43 111
e 43 116
e 43 120
e 43 121
e 43 122
e 43 124
e 43 127
e 43 128
e 43 131
e 43 135
e 43 138
e 43 139
e 43 141
e 43 142
e 43 144
e 43 145
e 43 147
e 44 45
e 44 51
e 44 53
e 44 55
e 44 56
e 44 59
e 44 60
e 44 63
e 44 64
e 44 66
e 44 68
e 44 72
e 44 75
e 44 76
e 44 81
e 44 82
e 44 86
e 44 92
e 44 93
e 44 94
e 44 100
e 44 105
e 44 112
e 44 120
e 44 121
e 44 122
e 44 126
e 44 127
e 44 129
e 44 133
e 44 135
e 44 144
e 44 146
e 44 148
e 45 49
e 45 53
e 45 56
e 45 58
e 45 59
e 45 60
e 45 62
e 45 65
e 45 69
e 45 73
e 45 75
e 45 76
e 45 78
e 45 80
e 45 86
e 45 88
e 45 91
e 45 95
e 45 97
e 45 100
e 45 102
e 45 110
e 45 113
e 45 116
e 45 120
e 45 125
e 45 128
e 45 130
e 45 132
e 45 134
e 45 135
e 45 136
e 45 137
e 45 138
e 45 144
e 45 150
e 46 54
e 46 58
e 46 61
e 46 68
e 46 69
e 46 70
e 46 71
e 46 77
e 46 83
e 46 85
e 46 86
e 46 88
e 46 91
e 46 92
e 46 98
e 46 102
e 46 106
e 46 110
e 46 114
e 46 115
e 46 117
e 46 119
e 46 120
e 46 122
e 46 126
e 46 129
e 46 133
e 46 134
e 46 140
e 46 142
e 46 143
e 46 149
e 46 150
e 47 48
e 47 61
e 47 62
e 47 68
e 47 70
e 47 74
e 47 78
e 47 81
e 47 88
e 47 92
e 47 93
e 47 95
e 47 98
e 47 100
e 47 104
e 47 113
e 47 118
e 47 120
e 47 121
e 47 122
e 47 129
e 47 136
e 47 143
e 47 144
e 47 147
e 47 148
e 48 49
e 48 52
e 48 53
e 48 58
e 48 62
e 48 69
e 48 72
e 48 76
e 48 86
e 48 89
e 48 90
e 48 92
e 48 93
e 48 101
e 48 106
e 48 116
e 48 120
e 48 138
e 48 143
e 48 149
e 49 54
e 49 61
e 49 62
e 49 65
e 49 67
e 49 69
e 49 70
e 49 72
e 49 73
e 49 75
e 49 77
e 49 83
e 49 85
e 49 87
e 49 89
e 49 90
e 49 91
e 49 96
e 49 102
e 49 103
e 49 107
e 49 108
e 49 110
e 49 112
e 49 120
e 49 125
e 49 126
e 49 130
e 49 131
e 49 133
e 49 142
e 49 143
e 49 144
e 49 150
e 50 54
e 50 56
e 50 60
e 50 64
e 50 72
e 50 79
e 50 80
e 50 84
e 50 92
e 50 94
e 50 96
e 50 99
e 50 100
e 50 107
e 50 110
e 50 111
e 50 115
e 50 120
e 50 124
e 50 125
e 50 126
e 50 130
e 50 133
e 50 145
e 50 148
e 51 52
e 51 57
e 51 59
e 51 60
e 51 65
e 51 66
e 51 68
e 51 75
e 51 78
e 51 81
e 51 83
e 51 90
e 51 93
e 51 101
e 51 102
e 51 106
e 51 108
e 51 110
e 51 111
e 51 113
e 51 116
e 51 121
e 51 124
e 51 135
e 51 137
e 51 138
e 51 139
e 51 141
e 51 144
e 51 147
e 52 54
e 52 57
e 52 61
e 52 66
e 52 70
e 52 71
e 52 73
e 52 74
e 52 75
e 52 76
e 52 77
e 52 81
e 52 83
e 52 84
e 52 91
e 52 100
e 52 101
e 52 105
e 52 106
e 52 107
e 52 108
e 52 113
e 52 119
e 52 124
e 52 125
e 52 132
e 52 133
e 52 135
e 52 138
e 52 145
e 52 147
e 52 149
e 53 54
e 53 56
e 53 58
e 53 61
e 53 65
e 53 67
e 53 71
e 53 73
e 53 93
e 53 95
e 53 106
e 53 120
e 53 121
e 53 122
e 53 123
e 53 127
e 53 128
e 53 130
e 53 133
e 53 142
e 53 144
e 54 55
e 54 57
e 54 59
e 54 64
e 54 65
e 54 69
e 54 73
e 54 78
e 54 86
e 54 87
e 54 91
e 54 94
e 54 95
e 54 96
e 54 102
e 54 103
e 54 104
e 54 107
e 54 117
e 54 123
e 54 125
e 54 139
e 54 140
e 54 141
e 54 144
e 54 150
e 55 56
e 55 62
e 55 64
e 55 70
e 55 76
e 55 80
e 55 85
e 55 87
e 55 98
e 55 100
e 55 103
e 55 105
e 55 106
e 55 109
e 55 113
e 55 118
e 55 119
e 55 122
e 55 124
e 55 125
e 55 126
e 55 130
e 55 135
e 55 136
e 55 137
e 55 138
e 55 146
e 55 147
e 56 57
e 56 58
e 56 61
e 56 62
e 56 66
e 56 67
e 56 71
e 56 73
e 56 74
e 56 75
e 56 76
e 56 77
e 56 79
e 56 82
e 56 84
e 56 87
e 56 89
e 56 90
e 56 92
e 56 94
e 56 98
e 56 103
e 56 104
e 56 106
e 56 108
e 56 111
e 56 113
e 56 114
e 56 115
e 56 116
e 56 124
e 56 125
e 56 128
e 56 132
e 56 135
e 56 136
e 56 137
e 56 139
e 56 140
e 56 141
e 56 143
e 56 144
e 56 146
e 57 68
e 57 69
e 57 72
e 57 78
e 57 84
e 57 87
e 57 91
e 57 93
e 57 96
e 57 98
e 57 107
e 57 111
e 57 115
e 57 129
e 57 131
e 57 132
e 57 134
e 57 137
e 57 148
e 57 149
e 58 66
e 58 72
e 58 77
e 58 79
e 58 82
e 58 87
e 58 89
e 58 90
e 58 93
e 58 95
e 58 99
e 58 100
e 58 105
e 58 106
e 58 107
e 58 108
e 58 117
e 58 118
e 58 119
e 58 123
e 58 124
e 58 128
e 58 139
e 58 141
e 58 144
e 59 61
e 59 64
e 59 68
e 59 73
e 59 74
e 59 77
e 59 80
e 59 84
e 59 86
e 59 87
e 59 93
e 59 97
e 59 100
e 59 103
e 59 108
e 59 111
e 59 114
e 59 122
e 59 124
e 59 135
e 59 137
e 59 138
e 59 144
e 59 148
e 59 150
e 60 63
e 60 66
e 60 68
e 60 70
e 60 75
e 60 76
e 60 81
e 60 88
e 60 95
e 60 99
e 60 104
e 60 112
e 60 114
e 60 117
e 60 119
e 60 124
e 60 127
e 60 128
e 60 133
e 60 134
e 60 135
e 60 137
e 60 142
e 60 143
e 60 147
e 61 71
e 61 75
e 61 78
e 61 81
e 61 91
e 61 97
e 61 99
e 61 100
e 61 103
e 61 116
e 61 125
e 61 132
e 61 134
e 61 140
e 61 141
e 61 144
e 61 147
e 61 149
e 61 150
e 62 76
e 62 78
e 62 79
e 62 82
e 62 84
e 62 85
e 62 86
e 62 90
e 62 92
e 62 96
e 62 104
e 62 106
e 62 108
e 62 112
e 62 117
e 62 121
e 62 122
e 62 130
e 62 133
e 62 134
e 62 139
e 62 141
e 62 144
e 62 148
e 63 64
e 63 72
e 63 75
e 63 80
e 63 82
e 63 83
e 63 84
e 63 86
e 63 93
e 63 96
e 63 99
e 63 104
e 63 106
e 63 113
e 63 114
e 63 116
e 63 117
e 63 121
e 63 122
e 63 128
e 63 133
e 63 137
e 63 138
e 63 140
e 63 141
e 63 142
e 63 143
e 63 146
e 63 150
e 64 67
e 64 68
e 64 70
e 64 72
e 64 73
e 64 74
e 64 77
e 64 78
e 64 91
e 64 97
e 64 98
e 64 99
e 64 104
e 64 108
e 64 110
e 64 117
e 64 118
e 64 120
e 64 131
e 64 137
e 64 139
e 64 140
e 64 142
e 64 145
e 64 146
e 64 150
e 65 68
e 65 69
e 65 72
e 65 73
e 65 80
e 65 85
e 65 88
e 65 90
e 65 91
e 65 97
e 65 102
e 65 110
e 65 117
e 65 119
e 65 120
e 65 124
e 65 139
e 65 141
e 65 143
e 65 144
e 65 150
e 66 67
e 66 68
e 66 70
e 66 71
e 66 73
e 66 74
e 66 75
e 66 76
e 66 86
e 66 89
e 66 90
e 66 92
e 66 94
e 66 95
e 66 96
e 66 97
e 66 99
e 66 103
e 66 110
e 66 113
e 66 117
e 66 125
e 66 126
e 66 129
e 66 131
e 66 132
e 66 135
e 66 136
e 66 138
e 66 140
e 66 150
e 67 76
e 67 78
e 67 80
e 67 81
e 67 82
e 67 85
e 67 95
e 67 98
e 67 99
e 67 110
e 67 111
e 67 118
e 67 119
e 67 120
e 67 121
e 67 125
e 67 132
e 67 133
e 67 135
e 67 136
e 67 137
e 67 143
e 67 146
e 67 147
e 68 73
e 68 75
e 68 77
e 68 80
e 68 85
e 68 88
e 68 91
e 68 93
e 68 95
e 68 100
e 68 102
e 68 103
e 68 104
e 68 110
e 68 111
e 68 112
e 68 118
e 68 120
e 68 125
e 68 128
e 68 129
e 68 132
e 68 135
e 68 137
e 68 138
e 68 141
e 68 144
e 68 149
e 69 76
e 69 77
e 69 79
e 69 90
e 69 92
e 69 95
e 69 97
e 69 101
e 69 104
e 69 106
e 69 114
e 69 117
e 69 123
e 69 126
e 69 127
e 69 128
e 69 133
e 69 134
e 69 136
e 69 137
e 69 139
e 69 140
e 69 143
e 70 71
e 70 75
e 70 77
e 70 91
e 70 102
e 70 105
e 70 110
e 70 111
e 70 119
e 70 124
e 70 125
e 70 126
e 70 128
e 70 130
e 70 134
e 70 137
e 70 142
e 70 145
e 70 147
e 70 148
e 71 72
e 71 76
e 71 77
e 71 79
e 71 80
e 71 82
e 71 89
e 71 90
e 71 95
e 71 102
e 71 103
e 71 105
e 71 111
e 71 116
e 71 124
e 71 126
e 71 128
e 71 131
e 71 132
e 71 135
e 71 139
e 71 140
e 71 141
e 71 146
e 71 149
e 72 77
e 72 80
e 72 97
e 72 99
e 72 100
e 72 101
e 72 102
e 72 103
e 72 106
e 72 108
e 72 116
e 72 120
e 72 122
e 72 124
e 72 125
e 72 128
e 72 130
e 72 132
e 72 136
e 72 139
e 72 149
e 72 150
e 73 78
e 73 79
e 73 83
e 73 84
e 73 86
e 73 95
e 73 97
e 73 101
e 73 102
e 73 103
e 73 110
e 73 111
e 73 112
e 73 118
e 73 120
e 73 121
e 73 124
e 73 128
e 73 137
e 73 138
e 73 140
e 73 142
e 73 143
e 73 149
e 74 80
e 74 86
e 74 88
e 74 89
e 74 90
e 74 91
e 74 96
e 74 97
e 74 98
e 74 100
e 74 105
e 74 106
e 74 107
e 74 115
e 74 121
e 74 130
e 74 135
e 74 139
e 74 141
e 74 146
e 74 149
e 75 76
e 75 77
e 75 80
e 75 84
e 75 85
e 75 86
e 75 90
e 75 93
e 75 94
e 75 96
e 75 100
e 75 105
e 75 114
e 75 115
e 75 116
e 75 123
e 75 125
e 75 128
e 75 133
e 75 138
e 75 144
e 75 148
e 75 149
e 76 78
e 76 81
e 76 85
e 76 89
e 76 91
e 76 92
e 76 93
e 76 95
e 76 96
e 76 97
e 76 98
e 76 99
e 76 101
e 76 102
e 76 108
e 76 109
e 76 118
e 76 119
e 76 120
e 76 122
e 76 124
e 76 125
e 76 129
e 76 130
e 76 134
e 76 135
e 76 136
e 76 137
e 76 139
e 76 143
e 76 147
e 76 148
e 77 78
e 77 81
e 77 84
e 77 87
e 77 93
e 77 101
e 77 103
e 77 104
e 77 106
e 77 108
e 77 111
e 77 114
e 77 119
e 77 126
e 77 131
e 77 136
e 77 142
e 77 145
e 77 147
e 77 149
e 78 79
e 78 82
e 78 84
e 78 90
e 78 98
e 78 99
e 78 100
e 78 102
e 78 108
e 78 110
e 78 112
e 78 113
e 78 115
e 78 116
e 78 118
e 78 119
e 78 124
e 78 126
e 78 127
e 78 136
e 78 138
e 78 143
e 78 144
e 78 146
e 79 85
e 79 93
e 79 94
e 79 99
e 79 101
e 79 110
e 79 117
e 79 122
e 79 123
e 79 127
e 79 130
e 79 136
e 79 150
e 80 85
e 80 96
e 80 98
e 80 99
e 80 103
e 80 119
e 80 121
e 80 122
e 80 124
e 80 129
e 80 134
e 80 135
e 80 136
e 80 142
e 80 147
e 80 150
e 81 85
e 81 87
e 81 93
e 81 98
e 81 99
e 81 101
e 81 102
e 81 104
e 81 105
e 81 107
e 81 112
e 81 113
e 81 120
e 81 127
e 81 128
e 81 131
e 81 132
e 81 134
e 81 135
e 81 137
e 81 143
e 81 145
e 81 147
e 81 149
e 81 150
e 82 83
e 82 86
e 82 89
e 82 91
e 82 93
e 82 96
e 82 101
e 82 104
e 82 109
e 82 113
e 82 115
e 82 116
e 82 121
e 82 126
e 82 128
e 82 129
e 82 131
e 82 134
e 82 140
e 82 145
e 82 148
e 83 85
e 83 92
e 83 94
e 83 95
e 83 97
e 83 105
e 83 107
e 83 110
e 83 113
e 83 114
e 83 116
e 83 117
e 83 118
e 83 121
e 83 122
e 83 123
e 83 126
e 83 128
e 83 131
e 83 132
e 83 133
e 83 134
e 83 137
e 83 142
e 84 89
e 84 91
e 84 93
e 84 97
e 84 102
e 84 105
e 84 122
e 84 123
e 84 125
e 84 132
e 84 135
e 84 138
e 84 139
e 84 143
e 84 144
e 84 145
e 84 146
e 84 149
e 84 150
e 85 89
e 85 92
e 85 93
e 85 95
e 85 96
e 85 100
e 85 101
e 85 102
e 85 112
e 85 114
e 85 115
e 85 117
e 85 119
e 85 127
e 85 130
e 85 131
e 85 132
e 85 136
e 85 139
e 85 144
e 86 97
e 86 100
e 86 101
e 86 104
e 86 106
e 86 109
e 86 112
e 86 113
e 86 114
e 86 117
e 86 121
e 86 125
e 86 128
e 86 133
e 86 135
e 86 138
e 86 140
e 86 142
e 86 143
e 86 144
e 86 148
e 86 149
e 86 150
e 87 92
e 87 95
e 87 97
e 87 98
e 87 100
e 87 106
e 87 112
e 87 119
e 87 129
e 87 134
e 87 136
e 87 139
e 87 147
e 87 149
e 87 150
e 88 89
e 88 91
e 88 95
e 88 99
e 88 102
e 88 110
e 88 112
e 88 113
e 88 117
e 88 120
e 88 123
e 88 124
e 88 125
e 88 131
e 88 133
e 88 135
e 88 136
e 88 140
e 88 142
e 88 146
e 89 105
e 89 106
e 89 108
e 89 112
e 89 120
e 89 122
e 89 123
e 89 128
e 89 137
e 89 144
e 89 148
e 89 150
e 90 96
e 90 97
e 90 98
e 90 101
e 90 104
e 90 105
e 90 110
e 90 113
e 90 115
e 90 117
e 90 122
e 90 132
e 90 134
e 90 138
e 90 139
e 90 141
e 90 143
e 90 144
e 90 149
e 91 92
e 91 93
e 91 94
e 91 96
e 91 101
e 91 109
e 91 111
e 91 115
e 91 123
e 91 128
e 91 142
e 91 144
e 91 146
e 91 147
e 91 150
e 92 104
e 92 107
e 92 109
e 92 112
e 92 115
e 92 119
e 92 120
e 92 122
e 92 126
e 92 127
e 92 128
e 92 132
e 92 134
e 92 135
e 92 138
e 92 141
e 92 150
e 93 94
e 93 96
e 93 101
e 93 102
e 93 108
e 93 109
e 93 112
e 93 113
e 93 115
e 93 119
e 93 122
e 93 128
e 93 129
e 93 130
e 93 132
e 93 137
e 93 147
e 94 95
e 94 104
e 94 106
e 94 107
e 94 109
e 94 111
e 94 113
e 94 116
e 94 120
e 94 127
e 94 132
e 94 137
e 94 143
e 94 145
e 94 147
e 95 96
e 95 98
e 95 103
e 95 104
e 95 107
e 95 112
e 95 115
e 95 119
e 95 120
e 95 129
e 95 130
e 95 132
e 95 134
e 95 135
e 95 143
e 95 147
e 96 98
e 96 100
e 96 104
e 96 106
e 96 109
e 96 111
e 96 120
e 96 122
e 96 125
e 96 126
e 96 128
e 96 129
e 96 130
e 96 140
e 96 149
e 96 150
e 97 101
e 97 107
e 97 109
e 97 111
e 97 112
e 97 113
e 97 114
e 97 119
e 97 121
e 97 123
e 97 125
e 97 126
e 97 128
e 97 130
e 97 131
e 97 133
e 97 140
e 97 143
e 97 149
e 97 150
e 98 99
e 98 101
e 98 105
e 98 108
e 98 111
e 98 112
e 98 114
e 98 120
e 98 121
e 98 124
e 98 125
e 98 126
e 98 128
e 98 131
e 98 133
e 98 139
e 98 142
e 98 143
e 98 145
e 98 148
e 99 101
e 99 103
e 99 106
e 99 119
e 99 122
e 99 123
e 99 124
e 99 131
e 99 139
e 99 141
e 99 143
e 100 104
e 100 105
e 100 107
e 100 108
e 100 109
e 100 113
e 100 117
e 100 119
e 100 120
e 100 122
e 100 124
e 100 126
e 100 129
e 100 130
e 100 131
e 100 134
e 100 143
e 100 145
e 100 146
e 100 150
e 101 111
e 101 112
e 101 124
e 101 127
e 101 130
e 101 133
e 101 134
e 101 138
e 101 140
e 101 141
e 101 142
e 101 144
e 101 148
e 101 150
e 102 109
e 102 114
e 102 116
e 102 118
e 102 125
e 102 132
e 102 140
e 102 143
e 102 144
e 102 146
e 102 148
e 102 149
e 103 105
e 103 106
e 103 108
e 103 110
e 103 112
e 103 116
e 103 117
e 103 118
e 103 119
e 103 121
e 103 126
e 103 128
e 103 129
e 103 143
e 103 144
e 103 146
e 103 148
e 103 149
e 103 150
e 104 107
e 104 110
e 104 114
e 104 115
e 104 118
e 104 121
e 104 124
e 104 127
e 104 129
e 104 132
e 104 134
e 104 137
e 104 139
e 104 141
e 104 145
e 104 147
e 104 148
e 104 149
e 105 108
e 105 111
e 105 115
e 105 123
e 105 125
e 105 129
e 105 133
e 105 135
e 105 139
e 105 144
e 105 147
e 106 113
e 106 118
e 106 121
e 106 124
e 106 128
e 106 131
e 106 133
e 106 134
e 106 137
e 106 138
e 106 143
e 106 146
e 106 150
e 107 108
e 107 113
e 107 119
e 107 121
e 107 122
e 107 123
e 107 127
e 107 129
e 107 136
e 107 140
e 107 145
e 107 148
e 108 110
e 108 112
e 108 113
e 108 115
e 108 122
e 108 126
e 108 127
e 108 129
e 108 135
e 108 138
e 108 146
e 108 149
e 109 110
e 109 113
e 109 126
e 109 128
e 109 129
e 109 130
e 109 133
e 109 135
e 109 138
e 109 139
e 109 140
e 109 143
e 109 145
e 109 148
e 110 115
e 110 122
e 110 124
e 110 127
e 110 129
e 110 130
e 110 131
e 110 133
e 110 134
e 110 136
e 110 138
e 110 141
e 110 144
e 110 145
e 110 147
e 111 114
e 111 118
e 111 119
e 111 121
e 111 125
e 111 127
e 111 130
e 111 133
e 111 139
e 111 145
e 111 146
e 111 147
e 111 148
e 112 113
e 112 115
e 112 120
e 112 126
e 112 127
e 112 129
e 112 133
e 112 134
e 112 140
e 112 143
e 112 148
e 112 150
e 113 114
e 113 118
e 113 119
e 113 122
e 113 124
e 113 125
e 113 130
e 113 134
e 113 135
e 113 146
e 113 150
e 114 118
e 114 120
e 114 121
e 114 122
e 114 123
e 114 124
e 114 126
e 114 134
e 114 143
e 114 145
e 114 148
e 115 122
e 115 124
e 115 126
e 115 128
e 115 131
e 115 138
e 115 141
e 115 142
e 116 117
e 116 119
e 116 123
e 116 126
e 116 129
e 116 130
e 116 132
e 116 134
e 116 135
e 116 139
e 116 148
e 116 149
e 116 150
e 117 126
e 117 136
e 117 137
e 117 138
e 117 148
e 117 149
e 117 150
e 118 119
e 118 120
e 118 121
e 118 122
e 118 123
e 118 132
e 118 133
e 118 134
e 118 136
e 118 137
e 118 142
e 118 144
e 118 145
e 118 147
e 119 127
e 119 131
e 119 147
e 119 148
e 119 149
e 119 150
e 120 124
e 120 127
e 120 129
e 120 133
e 120 135
e 120 137
e 120 139
e 120 143
e 120 146
e 120 147
e 121 122
e 121 123
e 121 127
e 121 128
e 121 132
e 121 133
e 121 139
e 121 141
e 121 143
e 121 146
e 121 147
e 122 126
e 122 127
e 122 128
e 122 133
e 122 139
e 122 140
e 123 126
e 123 128
e 123 140
e 123 141
e 123 143
e 123 148
e 124 128
e 124 133
e 124 140
e 124 144
e 125 127
e 125 128
e 125 129
e 125 137
e 125 143
e 125 145
e 125 146
e 125 150
e 126 127
e 126 128
e 126 130
e 126 136
e 126 137
e 126 138
e 126 140
e 126 143
e 126 145
e 126 149
e 127 132
e 127 135
e 127 141
e 127 142
e 127 143
e 128 130
e 128 132
e 128 133
e 128 134
e 128 138
e 128 144
e 128 145
e 128 150
e 129 130
e 129 135
e 129 137
e 129 139
e 129 145
e 130 132
e 130 135
e 130 137
e 130 139
e 130 143
e 130 145
e 130 149
e 131 132
e 131 134
e 131 137
e 131 143
e 131 149
e 132 135
e 132 136
e 132 137
e 132 138
e 132 139
e 132 140
e 132 141
e 132 144
e 132 147
e 133 135
e 133 141
e 133 144
e 134 136
e 134 137
e 134 138
e 134 141
e 134 142
e 134 146
e 134 147
e 134 150
e 135 137
e 135 144
e 135 145
e 135 148
e 135 149
e 135 150
e 136 143
e 136 148
e 136 149
e 136 150
e 137 140
e 137 144
e 137 147
e 138 141
e 138 143
e 138 144
e 138 145
e 138 148
e 138 149
e 139 146
e 139 147
e 139 149
e 140 142
e 140 144
e 140 149
e 141 147
e 143 144
e 143 146
e 143 147
e 143 148
e 143 149
e 144 148
e 146 147
e 146 149
e 147 150
